unsat
( c10
  c11
  c12
  c13
  c14
  c29
  c3174
  c3178
  c33
  c37
  c4249
  c5465
  c6435
  c6440
  c6455
  c6465
  c6466
  c6532
  c6541
  c6550
  c6551
  c6552
  c6618
  c8787
  c8791
  c8795
  c8799
  c8812
  c8813
  c8814
  c8815
  c8824
  c8913 )
